33D32945 STP File, STP Format Version 1.0

SECTION Comment
Name    "cancer1_4D"
Creator "S. A. Chowdhury, A. A. Schaffer, R. Schwartz"
Problem "Rectilinear Steiner Minimum Tree"
Remark  "Derived from a problem in (breast) cancer research"
END


SECTION Graph 
Nodes 20 
Obstacles 0
END

SECTION Coordinates
DDDD 1 2 2 2 2 
DDDD 2 2 2 2 0 
DDDD 3 2 2 2 3 
DDDD 4 3 3 2 2 
DDDD 5 1 2 2 2 
DDDD 6 2 1 2 2 
DDDD 7 2 2 3 2 
DDDD 8 2 3 2 2 
DDDD 9 3 2 2 2 
DDDD 10 3 4 3 3 
DDDD 11 1 3 2 2 
DDDD 12 3 0 2 2 
DDDD 13 3 2 2 1 
DDDD 14 3 3 1 2 
DDDD 15 3 3 2 1 
DDDD 16 3 3 4 2 
DDDD 17 3 3 3 2 
DDDD 18 3 4 2 2 
DDDD 19 4 4 3 2 
DDDD 20 6 6 6 2 
END

EOF 